c generated by sgen
p cnf 97 204
-2 -3 -4 0
-1 -3 -4 0
-1 -2 -4 0
-1 -2 -3 0
-6 -7 -8 0
-5 -7 -8 0
-5 -6 -8 0
-5 -6 -7 0
-10 -11 -12 0
-9 -11 -12 0
-9 -10 -12 0
-9 -10 -11 0
-14 -15 -16 0
-13 -15 -16 0
-13 -14 -16 0
-13 -14 -15 0
-18 -19 -20 0
-17 -19 -20 0
-17 -18 -20 0
-17 -18 -19 0
-22 -23 -24 0
-21 -23 -24 0
-21 -22 -24 0
-21 -22 -23 0
-26 -27 -28 0
-25 -27 -28 0
-25 -26 -28 0
-25 -26 -27 0
-30 -31 -32 0
-29 -31 -32 0
-29 -30 -32 0
-29 -30 -31 0
-34 -35 -36 0
-33 -35 -36 0
-33 -34 -36 0
-33 -34 -35 0
-38 -39 -40 0
-37 -39 -40 0
-37 -38 -40 0
-37 -38 -39 0
-42 -43 -44 0
-41 -43 -44 0
-41 -42 -44 0
-41 -42 -43 0
-46 -47 -48 0
-45 -47 -48 0
-45 -46 -48 0
-45 -46 -47 0
-50 -51 -52 0
-49 -51 -52 0
-49 -50 -52 0
-49 -50 -51 0
-54 -55 -56 0
-53 -55 -56 0
-53 -54 -56 0
-53 -54 -55 0
-58 -59 -60 0
-57 -59 -60 0
-57 -58 -60 0
-57 -58 -59 0
-62 -63 -64 0
-61 -63 -64 0
-61 -62 -64 0
-61 -62 -63 0
-66 -67 -68 0
-65 -67 -68 0
-65 -66 -68 0
-65 -66 -67 0
-70 -71 -72 0
-69 -71 -72 0
-69 -70 -72 0
-69 -70 -71 0
-74 -75 -76 0
-73 -75 -76 0
-73 -74 -76 0
-73 -74 -75 0
-78 -79 -80 0
-77 -79 -80 0
-77 -78 -80 0
-77 -78 -79 0
-82 -83 -84 0
-81 -83 -84 0
-81 -82 -84 0
-81 -82 -83 0
-86 -87 -88 0
-85 -87 -88 0
-85 -86 -88 0
-85 -86 -87 0
-90 -91 -92 0
-89 -91 -92 0
-89 -90 -92 0
-89 -90 -91 0
-93 -94 -95 0
-93 -94 -96 0
-93 -94 -97 0
-93 -95 -96 0
-93 -95 -97 0
-93 -96 -97 0
-94 -95 -96 0
-94 -95 -97 0
-94 -96 -97 0
-95 -96 -97 0
10 76 44 0
72 76 44 0
72 10 44 0
72 10 76 0
79 5 68 0
75 5 68 0
75 79 68 0
75 79 5 0
43 55 1 0
86 55 1 0
86 43 1 0
86 43 55 0
93 49 22 0
40 49 22 0
40 93 22 0
40 93 49 0
94 41 59 0
26 41 59 0
26 94 59 0
26 94 41 0
35 50 47 0
65 50 47 0
65 35 47 0
65 35 50 0
80 97 33 0
16 97 33 0
16 80 33 0
16 80 97 0
38 9 18 0
85 9 18 0
85 38 18 0
85 38 9 0
58 39 73 0
13 39 73 0
13 58 73 0
13 58 39 0
56 11 51 0
63 11 51 0
63 56 51 0
63 56 11 0
60 8 20 0
83 8 20 0
83 60 20 0
83 60 8 0
31 19 21 0
15 19 21 0
15 31 21 0
15 31 19 0
64 37 67 0
42 37 67 0
42 64 67 0
42 64 37 0
6 69 14 0
4 69 14 0
4 6 14 0
4 6 69 0
92 87 84 0
52 87 84 0
52 92 84 0
52 92 87 0
3 81 78 0
48 81 78 0
48 3 78 0
48 3 81 0
61 27 24 0
70 27 24 0
70 61 24 0
70 61 27 0
12 90 30 0
77 90 30 0
77 12 30 0
77 12 90 0
2 23 36 0
74 23 36 0
74 2 36 0
74 2 23 0
29 54 25 0
45 54 25 0
45 29 25 0
45 29 54 0
71 32 96 0
82 32 96 0
82 71 96 0
82 71 32 0
57 34 91 0
53 34 91 0
53 57 91 0
53 57 34 0
66 89 28 0
17 89 28 0
17 66 28 0
17 66 89 0
62 46 95 0
62 46 7 0
62 46 88 0
62 95 7 0
62 95 88 0
62 7 88 0
46 95 7 0
46 95 88 0
46 7 88 0
95 7 88 0
